# 12200
param n := 25;
param s := 1;
set E :=  (0,2) (0,17) (0,18) (1,6) (2,18) (3,5) (3,10) (3,15) (4,5) (4,14) (5,9) (5,15) (6,19) (6,20) (6,21) (6,24) (7,10) (7,13) (8,18) (8,22) (9,13) (9,19) (9,20) (10,14) (10,16) (10,18) (10,22) (11,13) (11,15) (11,17) (12,22) (12,24) (14,17) (15,19) (15,21) (17,20) (22,23);
